p cnf 12 50 
10 -11 -6 0
-7 2 4 0
7 2 -11 0
-8 11 1 0
-12 7 -9 0
4 9 5 0
3 -10 5 0
8 5 9 0
8 -9 3 0
-12 -10 -4 0
-9 10 11 0
-4 12 1 0
-10 8 12 0
-9 -6 -11 0
-11 4 3 0
7 2 3 0
-11 -2 9 0
3 4 -6 0
8 -7 -10 0
-9 10 11 0
-6 9 5 0
-7 4 -3 0
12 6 -10 0
-2 -4 10 0
-7 -11 -8 0
-2 -7 3 0
3 10 8 0
-12 -7 5 0
-1 11 -10 0
-8 10 -5 0
5 -4 7 0
4 -10 -8 0
-11 7 2 0
-9 1 -10 0
-3 -11 2 0
-9 7 12 0
-8 2 -10 0
9 -1 6 0
4 -2 -9 0
-6 -3 -10 0
12 -3 6 0
3 8 -2 0
-9 -4 8 0
9 5 -8 0
-7 -12 4 0
1 -5 8 0
12 -9 -1 0
6 -2 -3 0
-5 -9 12 0
-9 10 -5 0
